p cnf 291 1070
c p weight -21 1 0
c p weight 21 -1 0
c p weight 25 6.12323399573676603586882014729198302312846062338790031898128063403419218957424163818359375E-17 0
c p weight -25 1 0
c p weight 26 1 0
c p weight -26 1 0
c p weight -23 1 0
c p weight 23 -1 0
c p weight -27 1 0
c p weight 27 -1 0
c p weight -29 1 0
c p weight 29 -1 0
c p weight 33 6.12323399573676603586882014729198302312846062338790031898128063403419218957424163818359375E-17 0
c p weight -33 1 0
c p weight 34 1 0
c p weight -34 1 0
c p weight -31 1 0
c p weight 31 -1 0
c p weight -35 1 0
c p weight 35 -1 0
c p weight -37 1 0
c p weight 37 -1 0
c p weight 41 6.12323399573676603586882014729198302312846062338790031898128063403419218957424163818359375E-17 0
c p weight -41 1 0
c p weight 42 1 0
c p weight -42 1 0
c p weight -39 1 0
c p weight 39 -1 0
c p weight -43 1 0
c p weight 43 -1 0
c p weight -45 1 0
c p weight 45 -1 0
c p weight -48 1 0
c p weight 48 -1 0
c p weight 52 6.12323399573676603586882014729198302312846062338790031898128063403419218957424163818359375E-17 0
c p weight -52 1 0
c p weight 53 1 0
c p weight -53 1 0
c p weight -50 1 0
c p weight 50 -1 0
c p weight -54 1 0
c p weight 54 -1 0
c p weight -56 1 0
c p weight 56 -1 0
c p weight 60 6.12323399573676603586882014729198302312846062338790031898128063403419218957424163818359375E-17 0
c p weight -60 1 0
c p weight 61 1 0
c p weight -61 1 0
c p weight -58 1 0
c p weight 58 -1 0
c p weight -62 1 0
c p weight 62 -1 0
c p weight -64 1 0
c p weight 64 -1 0
c p weight 68 6.12323399573676603586882014729198302312846062338790031898128063403419218957424163818359375E-17 0
c p weight -68 1 0
c p weight 69 1 0
c p weight -69 1 0
c p weight -66 1 0
c p weight 66 -1 0
c p weight -70 1 0
c p weight 70 -1 0
c p weight -72 1 0
c p weight 72 -1 0
c p weight 76 6.12323399573676603586882014729198302312846062338790031898128063403419218957424163818359375E-17 0
c p weight -76 1 0
c p weight 77 1 0
c p weight -77 1 0
c p weight -74 1 0
c p weight 74 -1 0
c p weight -78 1 0
c p weight 78 -1 0
c p weight -80 1 0
c p weight 80 -1 0
c p weight -83 1 0
c p weight 83 -1 0
c p weight 87 6.12323399573676603586882014729198302312846062338790031898128063403419218957424163818359375E-17 0
c p weight -87 1 0
c p weight 88 1 0
c p weight -88 1 0
c p weight -85 1 0
c p weight 85 -1 0
c p weight -89 1 0
c p weight 89 -1 0
c p weight -91 1 0
c p weight 91 -1 0
c p weight 95 6.12323399573676603586882014729198302312846062338790031898128063403419218957424163818359375E-17 0
c p weight -95 1 0
c p weight 96 1 0
c p weight -96 1 0
c p weight -93 1 0
c p weight 93 -1 0
c p weight -97 1 0
c p weight 97 -1 0
c p weight -99 1 0
c p weight 99 -1 0
c p weight 103 6.12323399573676603586882014729198302312846062338790031898128063403419218957424163818359375E-17 0
c p weight -103 1 0
c p weight 104 1 0
c p weight -104 1 0
c p weight -101 1 0
c p weight 101 -1 0
c p weight -105 1 0
c p weight 105 -1 0
c p weight -107 1 0
c p weight 107 -1 0
c p weight -110 1 0
c p weight 110 -1 0
c p weight 114 6.12323399573676603586882014729198302312846062338790031898128063403419218957424163818359375E-17 0
c p weight -114 1 0
c p weight 115 1 0
c p weight -115 1 0
c p weight -112 1 0
c p weight 112 -1 0
c p weight -116 1 0
c p weight 116 -1 0
c p weight -118 1 0
c p weight 118 -1 0
c p weight 122 6.12323399573676603586882014729198302312846062338790031898128063403419218957424163818359375E-17 0
c p weight -122 1 0
c p weight 123 1 0
c p weight -123 1 0
c p weight -120 1 0
c p weight 120 -1 0
c p weight -124 1 0
c p weight 124 -1 0
c p weight -126 1 0
c p weight 126 -1 0
c p weight 130 6.12323399573676603586882014729198302312846062338790031898128063403419218957424163818359375E-17 0
c p weight -130 1 0
c p weight 131 1 0
c p weight -131 1 0
c p weight -128 1 0
c p weight 128 -1 0
c p weight -132 1 0
c p weight 132 -1 0
c p weight -134 1 0
c p weight 134 -1 0
c p weight 138 6.12323399573676603586882014729198302312846062338790031898128063403419218957424163818359375E-17 0
c p weight -138 1 0
c p weight 139 1 0
c p weight -139 1 0
c p weight -136 1 0
c p weight 136 -1 0
c p weight -140 1 0
c p weight 140 -1 0
c p weight -142 1 0
c p weight 142 -1 0
c p weight -145 1 0
c p weight 145 -1 0
c p weight 149 6.12323399573676603586882014729198302312846062338790031898128063403419218957424163818359375E-17 0
c p weight -149 1 0
c p weight 150 1 0
c p weight -150 1 0
c p weight -147 1 0
c p weight 147 -1 0
c p weight -151 1 0
c p weight 151 -1 0
c p weight -153 1 0
c p weight 153 -1 0
c p weight 157 6.12323399573676603586882014729198302312846062338790031898128063403419218957424163818359375E-17 0
c p weight -157 1 0
c p weight 158 1 0
c p weight -158 1 0
c p weight -155 1 0
c p weight 155 -1 0
c p weight -159 1 0
c p weight 159 -1 0
c p weight -161 1 0
c p weight 161 -1 0
c p weight -164 1 0
c p weight 164 -1 0
c p weight 168 6.12323399573676603586882014729198302312846062338790031898128063403419218957424163818359375E-17 0
c p weight -168 1 0
c p weight 169 1 0
c p weight -169 1 0
c p weight -166 1 0
c p weight 166 -1 0
c p weight -170 1 0
c p weight 170 -1 0
c p weight -172 1 0
c p weight 172 -1 0
c p weight 176 6.12323399573676603586882014729198302312846062338790031898128063403419218957424163818359375E-17 0
c p weight -176 1 0
c p weight 177 1 0
c p weight -177 1 0
c p weight -174 1 0
c p weight 174 -1 0
c p weight -178 1 0
c p weight 178 -1 0
c p weight -180 1 0
c p weight 180 -1 0
c p weight 184 6.12323399573676603586882014729198302312846062338790031898128063403419218957424163818359375E-17 0
c p weight -184 1 0
c p weight 185 1 0
c p weight -185 1 0
c p weight -182 1 0
c p weight 182 -1 0
c p weight -186 1 0
c p weight 186 -1 0
c p weight -188 1 0
c p weight 188 -1 0
c p weight -191 1 0
c p weight 191 -1 0
c p weight 195 6.12323399573676603586882014729198302312846062338790031898128063403419218957424163818359375E-17 0
c p weight -195 1 0
c p weight 196 1 0
c p weight -196 1 0
c p weight -193 1 0
c p weight 193 -1 0
c p weight -197 1 0
c p weight 197 -1 0
c p weight -199 1 0
c p weight 199 -1 0
c p weight 203 6.12323399573676603586882014729198302312846062338790031898128063403419218957424163818359375E-17 0
c p weight -203 1 0
c p weight 204 1 0
c p weight -204 1 0
c p weight -201 1 0
c p weight 201 -1 0
c p weight -205 1 0
c p weight 205 -1 0
c p weight -207 1 0
c p weight 207 -1 0
c p weight 211 6.12323399573676603586882014729198302312846062338790031898128063403419218957424163818359375E-17 0
c p weight -211 1 0
c p weight 212 1 0
c p weight -212 1 0
c p weight -209 1 0
c p weight 209 -1 0
c p weight -213 1 0
c p weight 213 -1 0
c p weight -215 1 0
c p weight 215 -1 0
c p weight -218 1 0
c p weight 218 -1 0
c p weight 222 6.12323399573676603586882014729198302312846062338790031898128063403419218957424163818359375E-17 0
c p weight -222 1 0
c p weight 223 1 0
c p weight -223 1 0
c p weight -220 1 0
c p weight 220 -1 0
c p weight -224 1 0
c p weight 224 -1 0
c p weight -226 1 0
c p weight 226 -1 0
c p weight 230 6.12323399573676603586882014729198302312846062338790031898128063403419218957424163818359375E-17 0
c p weight -230 1 0
c p weight 231 1 0
c p weight -231 1 0
c p weight -228 1 0
c p weight 228 -1 0
c p weight -232 1 0
c p weight 232 -1 0
c p weight -234 1 0
c p weight 234 -1 0
c p weight -237 1 0
c p weight 237 -1 0
c p weight 241 6.12323399573676603586882014729198302312846062338790031898128063403419218957424163818359375E-17 0
c p weight -241 1 0
c p weight 242 1 0
c p weight -242 1 0
c p weight -239 1 0
c p weight 239 -1 0
c p weight -243 1 0
c p weight 243 -1 0
c p weight -245 1 0
c p weight 245 -1 0
c p weight 249 6.12323399573676603586882014729198302312846062338790031898128063403419218957424163818359375E-17 0
c p weight -249 1 0
c p weight 250 1 0
c p weight -250 1 0
c p weight -247 1 0
c p weight 247 -1 0
c p weight -251 1 0
c p weight 251 -1 0
c p weight -253 1 0
c p weight 253 -1 0
c p weight 257 6.12323399573676603586882014729198302312846062338790031898128063403419218957424163818359375E-17 0
c p weight -257 1 0
c p weight 258 1 0
c p weight -258 1 0
c p weight -255 1 0
c p weight 255 -1 0
c p weight -259 1 0
c p weight 259 -1 0
c p weight -261 1 0
c p weight 261 -1 0
c p weight -264 1 0
c p weight 264 -1 0
c p weight 268 6.12323399573676603586882014729198302312846062338790031898128063403419218957424163818359375E-17 0
c p weight -268 1 0
c p weight 269 1 0
c p weight -269 1 0
c p weight -266 1 0
c p weight 266 -1 0
c p weight -270 1 0
c p weight 270 -1 0
c p weight -272 1 0
c p weight 272 -1 0
c p weight 276 6.12323399573676603586882014729198302312846062338790031898128063403419218957424163818359375E-17 0
c p weight -276 1 0
c p weight 277 1 0
c p weight -277 1 0
c p weight -274 1 0
c p weight 274 -1 0
c p weight -278 1 0
c p weight 278 -1 0
c p weight -280 1 0
c p weight 280 -1 0
c p weight -283 1 0
c p weight 283 -1 0
c p weight 287 6.12323399573676603586882014729198302312846062338790031898128063403419218957424163818359375E-17 0
c p weight -287 1 0
c p weight 288 1 0
c p weight -288 1 0
c p weight -285 1 0
c p weight 285 -1 0
c p weight -289 1 0
c p weight 289 -1 0
c p weight 291 0.5 0
c p weight -291 1 0
291 0
-19 0
-17 0
-15 0
-13 0
-11 0
-9 0
-7 0
-5 0
-3 0
-1 0
-21 1 0
-21 2 0
21 -1 -2 0
22 1 -2 0
22 -1 2 0
-22 1 2 0
-22 -1 -2 0
-23 24 0
-23 22 0
-23 -1 0
23 -24 1 -22 0
24 -1 22 0
-24 1 22 0
-25 22 0
24 -25 -1 0
-24 -25 1 0
24 25 1 -22 0
-24 25 -1 -22 0
-26 22 0
24 -26 1 0
-24 -26 -1 0
24 26 -1 -22 0
-24 26 1 -22 0
-27 24 0
-27 22 0
27 -24 -22 0
28 24 -22 0
28 -24 22 0
-28 24 22 0
-28 -24 -22 0
-29 3 0
-29 4 0
29 -3 -4 0
30 3 -4 0
30 -3 4 0
-30 3 4 0
-30 -3 -4 0
-31 32 0
-31 30 0
-31 -3 0
31 -32 3 -30 0
32 -3 30 0
-32 3 30 0
-33 30 0
32 -33 -3 0
-32 -33 3 0
32 33 3 -30 0
-32 33 -3 -30 0
-34 30 0
32 -34 3 0
-32 -34 -3 0
32 34 -3 -30 0
-32 34 3 -30 0
-35 32 0
-35 30 0
35 -32 -30 0
36 32 -30 0
36 -32 30 0
-36 32 30 0
-36 -32 -30 0
-37 32 0
-37 36 0
37 -32 -36 0
38 32 -36 0
38 -32 36 0
-38 32 36 0
-38 -32 -36 0
-39 40 0
-39 38 0
-39 -32 0
39 -40 32 -38 0
40 -32 38 0
-40 32 38 0
-41 38 0
40 -41 -32 0
-40 -41 32 0
40 41 32 -38 0
-40 41 -32 -38 0
-42 38 0
40 -42 32 0
-40 -42 -32 0
40 42 -32 -38 0
-40 42 32 -38 0
-43 40 0
-43 38 0
43 -40 -38 0
44 40 -38 0
44 -40 38 0
-44 40 38 0
-44 -40 -38 0
-45 24 0
-45 44 0
-45 40 -28 0
-45 -40 28 0
45 -24 40 28 -44 0
45 -24 -40 -28 -44 0
47 24 -40 0
47 -24 40 0
-47 24 40 0
-47 -24 -40 0
46 28 -44 0
46 -28 44 0
-46 28 44 0
-46 -28 -44 0
-48 47 0
-48 44 0
48 -47 -44 0
49 47 -44 0
49 -47 44 0
-49 47 44 0
-49 -47 -44 0
-50 51 0
-50 49 0
-50 -47 0
50 -51 47 -49 0
51 -47 49 0
-51 47 49 0
-52 49 0
51 -52 -47 0
-51 -52 47 0
51 52 47 -49 0
-51 52 -47 -49 0
-53 49 0
51 -53 47 0
-51 -53 -47 0
51 53 -47 -49 0
-51 53 47 -49 0
-54 51 0
-54 49 0
54 -51 -49 0
55 51 -49 0
55 -51 49 0
-55 51 49 0
-55 -51 -49 0
-56 5 0
-56 6 0
56 -5 -6 0
57 5 -6 0
57 -5 6 0
-57 5 6 0
-57 -5 -6 0
-58 59 0
-58 57 0
-58 -5 0
58 -59 5 -57 0
59 -5 57 0
-59 5 57 0
-60 57 0
59 -60 -5 0
-59 -60 5 0
59 60 5 -57 0
-59 60 -5 -57 0
-61 57 0
59 -61 5 0
-59 -61 -5 0
59 61 -5 -57 0
-59 61 5 -57 0
-62 59 0
-62 57 0
62 -59 -57 0
63 59 -57 0
63 -59 57 0
-63 59 57 0
-63 -59 -57 0
-64 7 0
-64 8 0
64 -7 -8 0
65 7 -8 0
65 -7 8 0
-65 7 8 0
-65 -7 -8 0
-66 67 0
-66 65 0
-66 -7 0
66 -67 7 -65 0
67 -7 65 0
-67 7 65 0
-68 65 0
67 -68 -7 0
-67 -68 7 0
67 68 7 -65 0
-67 68 -7 -65 0
-69 65 0
67 -69 7 0
-67 -69 -7 0
67 69 -7 -65 0
-67 69 7 -65 0
-70 67 0
-70 65 0
70 -67 -65 0
71 67 -65 0
71 -67 65 0
-71 67 65 0
-71 -67 -65 0
-72 67 0
-72 71 0
72 -67 -71 0
73 67 -71 0
73 -67 71 0
-73 67 71 0
-73 -67 -71 0
-74 75 0
-74 73 0
-74 -67 0
74 -75 67 -73 0
75 -67 73 0
-75 67 73 0
-76 73 0
75 -76 -67 0
-75 -76 67 0
75 76 67 -73 0
-75 76 -67 -73 0
-77 73 0
75 -77 67 0
-75 -77 -67 0
75 77 -67 -73 0
-75 77 67 -73 0
-78 75 0
-78 73 0
78 -75 -73 0
79 75 -73 0
79 -75 73 0
-79 75 73 0
-79 -75 -73 0
-80 59 0
-80 79 0
-80 75 -63 0
-80 -75 63 0
80 -59 75 63 -79 0
80 -59 -75 -63 -79 0
82 59 -75 0
82 -59 75 0
-82 59 75 0
-82 -59 -75 0
81 63 -79 0
81 -63 79 0
-81 63 79 0
-81 -63 -79 0
-83 82 0
-83 79 0
83 -82 -79 0
84 82 -79 0
84 -82 79 0
-84 82 79 0
-84 -82 -79 0
-85 86 0
-85 84 0
-85 -82 0
85 -86 82 -84 0
86 -82 84 0
-86 82 84 0
-87 84 0
86 -87 -82 0
-86 -87 82 0
86 87 82 -84 0
-86 87 -82 -84 0
-88 84 0
86 -88 82 0
-86 -88 -82 0
86 88 -82 -84 0
-86 88 82 -84 0
-89 86 0
-89 84 0
89 -86 -84 0
90 86 -84 0
90 -86 84 0
-90 86 84 0
-90 -86 -84 0
-91 9 0
-91 10 0
91 -9 -10 0
92 9 -10 0
92 -9 10 0
-92 9 10 0
-92 -9 -10 0
-93 94 0
-93 92 0
-93 -9 0
93 -94 9 -92 0
94 -9 92 0
-94 9 92 0
-95 92 0
94 -95 -9 0
-94 -95 9 0
94 95 9 -92 0
-94 95 -9 -92 0
-96 92 0
94 -96 9 0
-94 -96 -9 0
94 96 -9 -92 0
-94 96 9 -92 0
-97 94 0
-97 92 0
97 -94 -92 0
98 94 -92 0
98 -94 92 0
-98 94 92 0
-98 -94 -92 0
-99 94 0
-99 98 0
99 -94 -98 0
100 94 -98 0
100 -94 98 0
-100 94 98 0
-100 -94 -98 0
-101 102 0
-101 100 0
-101 -94 0
101 -102 94 -100 0
102 -94 100 0
-102 94 100 0
-103 100 0
102 -103 -94 0
-102 -103 94 0
102 103 94 -100 0
-102 103 -94 -100 0
-104 100 0
102 -104 94 0
-102 -104 -94 0
102 104 -94 -100 0
-102 104 94 -100 0
-105 102 0
-105 100 0
105 -102 -100 0
106 102 -100 0
106 -102 100 0
-106 102 100 0
-106 -102 -100 0
-107 86 0
-107 106 0
-107 102 -90 0
-107 -102 90 0
107 -86 102 90 -106 0
107 -86 -102 -90 -106 0
109 86 -102 0
109 -86 102 0
-109 86 102 0
-109 -86 -102 0
108 90 -106 0
108 -90 106 0
-108 90 106 0
-108 -90 -106 0
-110 109 0
-110 106 0
110 -109 -106 0
111 109 -106 0
111 -109 106 0
-111 109 106 0
-111 -109 -106 0
-112 113 0
-112 111 0
-112 -109 0
112 -113 109 -111 0
113 -109 111 0
-113 109 111 0
-114 111 0
113 -114 -109 0
-113 -114 109 0
113 114 109 -111 0
-113 114 -109 -111 0
-115 111 0
113 -115 109 0
-113 -115 -109 0
113 115 -109 -111 0
-113 115 109 -111 0
-116 113 0
-116 111 0
116 -113 -111 0
117 113 -111 0
117 -113 111 0
-117 113 111 0
-117 -113 -111 0
-118 11 0
-118 12 0
118 -11 -12 0
119 11 -12 0
119 -11 12 0
-119 11 12 0
-119 -11 -12 0
-120 121 0
-120 119 0
-120 -11 0
120 -121 11 -119 0
121 -11 119 0
-121 11 119 0
-122 119 0
121 -122 -11 0
-121 -122 11 0
121 122 11 -119 0
-121 122 -11 -119 0
-123 119 0
121 -123 11 0
-121 -123 -11 0
121 123 -11 -119 0
-121 123 11 -119 0
-124 121 0
-124 119 0
124 -121 -119 0
125 121 -119 0
125 -121 119 0
-125 121 119 0
-125 -121 -119 0
-126 13 0
-126 14 0
126 -13 -14 0
127 13 -14 0
127 -13 14 0
-127 13 14 0
-127 -13 -14 0
-128 129 0
-128 127 0
-128 -13 0
128 -129 13 -127 0
129 -13 127 0
-129 13 127 0
-130 127 0
129 -130 -13 0
-129 -130 13 0
129 130 13 -127 0
-129 130 -13 -127 0
-131 127 0
129 -131 13 0
-129 -131 -13 0
129 131 -13 -127 0
-129 131 13 -127 0
-132 129 0
-132 127 0
132 -129 -127 0
133 129 -127 0
133 -129 127 0
-133 129 127 0
-133 -129 -127 0
-134 129 0
-134 133 0
134 -129 -133 0
135 129 -133 0
135 -129 133 0
-135 129 133 0
-135 -129 -133 0
-136 137 0
-136 135 0
-136 -129 0
136 -137 129 -135 0
137 -129 135 0
-137 129 135 0
-138 135 0
137 -138 -129 0
-137 -138 129 0
137 138 129 -135 0
-137 138 -129 -135 0
-139 135 0
137 -139 129 0
-137 -139 -129 0
137 139 -129 -135 0
-137 139 129 -135 0
-140 137 0
-140 135 0
140 -137 -135 0
141 137 -135 0
141 -137 135 0
-141 137 135 0
-141 -137 -135 0
-142 113 0
-142 141 0
-142 137 -117 0
-142 -137 117 0
142 -113 137 117 -141 0
142 -113 -137 -117 -141 0
144 113 -137 0
144 -113 137 0
-144 113 137 0
-144 -113 -137 0
143 117 -141 0
143 -117 141 0
-143 117 141 0
-143 -117 -141 0
-145 144 0
-145 141 0
145 -144 -141 0
146 144 -141 0
146 -144 141 0
-146 144 141 0
-146 -144 -141 0
-147 148 0
-147 146 0
-147 -144 0
147 -148 144 -146 0
148 -144 146 0
-148 144 146 0
-149 146 0
148 -149 -144 0
-148 -149 144 0
148 149 144 -146 0
-148 149 -144 -146 0
-150 146 0
148 -150 144 0
-148 -150 -144 0
148 150 -144 -146 0
-148 150 144 -146 0
-151 148 0
-151 146 0
151 -148 -146 0
152 148 -146 0
152 -148 146 0
-152 148 146 0
-152 -148 -146 0
-153 148 0
-153 152 0
153 -148 -152 0
154 148 -152 0
154 -148 152 0
-154 148 152 0
-154 -148 -152 0
-155 156 0
-155 154 0
-155 -148 0
155 -156 148 -154 0
156 -148 154 0
-156 148 154 0
-157 154 0
156 -157 -148 0
-156 -157 148 0
156 157 148 -154 0
-156 157 -148 -154 0
-158 154 0
156 -158 148 0
-156 -158 -148 0
156 158 -148 -154 0
-156 158 148 -154 0
-159 156 0
-159 154 0
159 -156 -154 0
160 156 -154 0
160 -156 154 0
-160 156 154 0
-160 -156 -154 0
-161 121 0
-161 160 0
-161 156 -125 0
-161 -156 125 0
161 -121 156 125 -160 0
161 -121 -156 -125 -160 0
163 121 -156 0
163 -121 156 0
-163 121 156 0
-163 -121 -156 0
162 125 -160 0
162 -125 160 0
-162 125 160 0
-162 -125 -160 0
-164 163 0
-164 160 0
164 -163 -160 0
165 163 -160 0
165 -163 160 0
-165 163 160 0
-165 -163 -160 0
-166 167 0
-166 165 0
-166 -163 0
166 -167 163 -165 0
167 -163 165 0
-167 163 165 0
-168 165 0
167 -168 -163 0
-167 -168 163 0
167 168 163 -165 0
-167 168 -163 -165 0
-169 165 0
167 -169 163 0
-167 -169 -163 0
167 169 -163 -165 0
-167 169 163 -165 0
-170 167 0
-170 165 0
170 -167 -165 0
171 167 -165 0
171 -167 165 0
-171 167 165 0
-171 -167 -165 0
-172 15 0
-172 16 0
172 -15 -16 0
173 15 -16 0
173 -15 16 0
-173 15 16 0
-173 -15 -16 0
-174 175 0
-174 173 0
-174 -15 0
174 -175 15 -173 0
175 -15 173 0
-175 15 173 0
-176 173 0
175 -176 -15 0
-175 -176 15 0
175 176 15 -173 0
-175 176 -15 -173 0
-177 173 0
175 -177 15 0
-175 -177 -15 0
175 177 -15 -173 0
-175 177 15 -173 0
-178 175 0
-178 173 0
178 -175 -173 0
179 175 -173 0
179 -175 173 0
-179 175 173 0
-179 -175 -173 0
-180 175 0
-180 179 0
180 -175 -179 0
181 175 -179 0
181 -175 179 0
-181 175 179 0
-181 -175 -179 0
-182 183 0
-182 181 0
-182 -175 0
182 -183 175 -181 0
183 -175 181 0
-183 175 181 0
-184 181 0
183 -184 -175 0
-183 -184 175 0
183 184 175 -181 0
-183 184 -175 -181 0
-185 181 0
183 -185 175 0
-183 -185 -175 0
183 185 -175 -181 0
-183 185 175 -181 0
-186 183 0
-186 181 0
186 -183 -181 0
187 183 -181 0
187 -183 181 0
-187 183 181 0
-187 -183 -181 0
-188 121 0
-188 187 0
-188 183 -162 0
-188 -183 162 0
188 -121 183 162 -187 0
188 -121 -183 -162 -187 0
190 121 -183 0
190 -121 183 0
-190 121 183 0
-190 -121 -183 0
189 162 -187 0
189 -162 187 0
-189 162 187 0
-189 -162 -187 0
-191 190 0
-191 187 0
191 -190 -187 0
192 190 -187 0
192 -190 187 0
-192 190 187 0
-192 -190 -187 0
-193 194 0
-193 192 0
-193 -190 0
193 -194 190 -192 0
194 -190 192 0
-194 190 192 0
-195 192 0
194 -195 -190 0
-194 -195 190 0
194 195 190 -192 0
-194 195 -190 -192 0
-196 192 0
194 -196 190 0
-194 -196 -190 0
194 196 -190 -192 0
-194 196 190 -192 0
-197 194 0
-197 192 0
197 -194 -192 0
198 194 -192 0
198 -194 192 0
-198 194 192 0
-198 -194 -192 0
-199 17 0
-199 18 0
199 -17 -18 0
200 17 -18 0
200 -17 18 0
-200 17 18 0
-200 -17 -18 0
-201 202 0
-201 200 0
-201 -17 0
201 -202 17 -200 0
202 -17 200 0
-202 17 200 0
-203 200 0
202 -203 -17 0
-202 -203 17 0
202 203 17 -200 0
-202 203 -17 -200 0
-204 200 0
202 -204 17 0
-202 -204 -17 0
202 204 -17 -200 0
-202 204 17 -200 0
-205 202 0
-205 200 0
205 -202 -200 0
206 202 -200 0
206 -202 200 0
-206 202 200 0
-206 -202 -200 0
-207 202 0
-207 206 0
207 -202 -206 0
208 202 -206 0
208 -202 206 0
-208 202 206 0
-208 -202 -206 0
-209 210 0
-209 208 0
-209 -202 0
209 -210 202 -208 0
210 -202 208 0
-210 202 208 0
-211 208 0
210 -211 -202 0
-210 -211 202 0
210 211 202 -208 0
-210 211 -202 -208 0
-212 208 0
210 -212 202 0
-210 -212 -202 0
210 212 -202 -208 0
-210 212 202 -208 0
-213 210 0
-213 208 0
213 -210 -208 0
214 210 -208 0
214 -210 208 0
-214 210 208 0
-214 -210 -208 0
-215 51 0
-215 214 0
-215 210 -55 0
-215 -210 55 0
215 -51 210 55 -214 0
215 -51 -210 -55 -214 0
217 51 -210 0
217 -51 210 0
-217 51 210 0
-217 -51 -210 0
216 55 -214 0
216 -55 214 0
-216 55 214 0
-216 -55 -214 0
-218 217 0
-218 214 0
218 -217 -214 0
219 217 -214 0
219 -217 214 0
-219 217 214 0
-219 -217 -214 0
-220 221 0
-220 219 0
-220 -217 0
220 -221 217 -219 0
221 -217 219 0
-221 217 219 0
-222 219 0
221 -222 -217 0
-221 -222 217 0
221 222 217 -219 0
-221 222 -217 -219 0
-223 219 0
221 -223 217 0
-221 -223 -217 0
221 223 -217 -219 0
-221 223 217 -219 0
-224 221 0
-224 219 0
224 -221 -219 0
225 221 -219 0
225 -221 219 0
-225 221 219 0
-225 -221 -219 0
-226 221 0
-226 225 0
226 -221 -225 0
227 221 -225 0
227 -221 225 0
-227 221 225 0
-227 -221 -225 0
-228 229 0
-228 227 0
-228 -221 0
228 -229 221 -227 0
229 -221 227 0
-229 221 227 0
-230 227 0
229 -230 -221 0
-229 -230 221 0
229 230 221 -227 0
-229 230 -221 -227 0
-231 227 0
229 -231 221 0
-229 -231 -221 0
229 231 -221 -227 0
-229 231 221 -227 0
-232 229 0
-232 227 0
232 -229 -227 0
233 229 -227 0
233 -229 227 0
-233 229 227 0
-233 -229 -227 0
-234 194 0
-234 233 0
-234 229 -198 0
-234 -229 198 0
234 -194 229 198 -233 0
234 -194 -229 -198 -233 0
236 194 -229 0
236 -194 229 0
-236 194 229 0
-236 -194 -229 0
235 198 -233 0
235 -198 233 0
-235 198 233 0
-235 -198 -233 0
-237 236 0
-237 233 0
237 -236 -233 0
238 236 -233 0
238 -236 233 0
-238 236 233 0
-238 -236 -233 0
-239 240 0
-239 238 0
-239 -236 0
239 -240 236 -238 0
240 -236 238 0
-240 236 238 0
-241 238 0
240 -241 -236 0
-240 -241 236 0
240 241 236 -238 0
-240 241 -236 -238 0
-242 238 0
240 -242 236 0
-240 -242 -236 0
240 242 -236 -238 0
-240 242 236 -238 0
-243 240 0
-243 238 0
243 -240 -238 0
244 240 -238 0
244 -240 238 0
-244 240 238 0
-244 -240 -238 0
-245 19 0
-245 20 0
245 -19 -20 0
246 19 -20 0
246 -19 20 0
-246 19 20 0
-246 -19 -20 0
-247 248 0
-247 246 0
-247 -19 0
247 -248 19 -246 0
248 -19 246 0
-248 19 246 0
-249 246 0
248 -249 -19 0
-248 -249 19 0
248 249 19 -246 0
-248 249 -19 -246 0
-250 246 0
248 -250 19 0
-248 -250 -19 0
248 250 -19 -246 0
-248 250 19 -246 0
-251 248 0
-251 246 0
251 -248 -246 0
252 248 -246 0
252 -248 246 0
-252 248 246 0
-252 -248 -246 0
-253 248 0
-253 252 0
253 -248 -252 0
254 248 -252 0
254 -248 252 0
-254 248 252 0
-254 -248 -252 0
-255 256 0
-255 254 0
-255 -248 0
255 -256 248 -254 0
256 -248 254 0
-256 248 254 0
-257 254 0
256 -257 -248 0
-256 -257 248 0
256 257 248 -254 0
-256 257 -248 -254 0
-258 254 0
256 -258 248 0
-256 -258 -248 0
256 258 -248 -254 0
-256 258 248 -254 0
-259 256 0
-259 254 0
259 -256 -254 0
260 256 -254 0
260 -256 254 0
-260 256 254 0
-260 -256 -254 0
-261 24 0
-261 260 0
-261 256 -46 0
-261 -256 46 0
261 -24 256 46 -260 0
261 -24 -256 -46 -260 0
263 24 -256 0
263 -24 256 0
-263 24 256 0
-263 -24 -256 0
262 46 -260 0
262 -46 260 0
-262 46 260 0
-262 -46 -260 0
-264 263 0
-264 260 0
264 -263 -260 0
265 263 -260 0
265 -263 260 0
-265 263 260 0
-265 -263 -260 0
-266 267 0
-266 265 0
-266 -263 0
266 -267 263 -265 0
267 -263 265 0
-267 263 265 0
-268 265 0
267 -268 -263 0
-267 -268 263 0
267 268 263 -265 0
-267 268 -263 -265 0
-269 265 0
267 -269 263 0
-267 -269 -263 0
267 269 -263 -265 0
-267 269 263 -265 0
-270 267 0
-270 265 0
270 -267 -265 0
271 267 -265 0
271 -267 265 0
-271 267 265 0
-271 -267 -265 0
-272 267 0
-272 271 0
272 -267 -271 0
273 267 -271 0
273 -267 271 0
-273 267 271 0
-273 -267 -271 0
-274 275 0
-274 273 0
-274 -267 0
274 -275 267 -273 0
275 -267 273 0
-275 267 273 0
-276 273 0
275 -276 -267 0
-275 -276 267 0
275 276 267 -273 0
-275 276 -267 -273 0
-277 273 0
275 -277 267 0
-275 -277 -267 0
275 277 -267 -273 0
-275 277 267 -273 0
-278 275 0
-278 273 0
278 -275 -273 0
279 275 -273 0
279 -275 273 0
-279 275 273 0
-279 -275 -273 0
-280 59 0
-280 279 0
-280 275 -81 0
-280 -275 81 0
280 -59 275 81 -279 0
280 -59 -275 -81 -279 0
282 59 -275 0
282 -59 275 0
-282 59 275 0
-282 -59 -275 0
281 81 -279 0
281 -81 279 0
-281 81 279 0
-281 -81 -279 0
-283 282 0
-283 279 0
283 -282 -279 0
284 282 -279 0
284 -282 279 0
-284 282 279 0
-284 -282 -279 0
-285 286 0
-285 284 0
-285 -282 0
285 -286 282 -284 0
286 -282 284 0
-286 282 284 0
-287 284 0
286 -287 -282 0
-286 -287 282 0
286 287 282 -284 0
-286 287 -282 -284 0
-288 284 0
286 -288 282 0
-286 -288 -282 0
286 288 -282 -284 0
-286 288 282 -284 0
-289 286 0
-289 284 0
289 -286 -284 0
290 286 -284 0
290 -286 284 0
-290 286 284 0
-290 -286 -284 0
-24 0
-51 0
-216 0
-59 0
-281 0
-86 0
-108 0
-113 0
-143 0
-121 0
-189 0
-167 0
-171 0
-194 0
-235 0
-240 0
-244 0
-286 0
-290 0
